(set-logic ALL)
(declare-fun seed0_T_1 () Int)
(declare-fun seed0_T_2 () Bool)
(declare-fun seed0_var_0xINPUT_280050 () String)
(assert (and (or (>= seed0_T_1 (str.len seed0_var_0xINPUT_280050)) (> (div seed0_T_1 seed0_T_1) (* seed0_T_1 seed0_T_1))) (or (= seed0_T_2 (= seed0_T_1 0)) (=> (str.contains (str.++ seed0_var_0xINPUT_280050 "jhvgFIuypJ") (str.++ seed0_var_0xINPUT_280050 "zeL24HIlsO69uy5aPR")) (str.contains (str.++ seed0_var_0xINPUT_280050 "lgwN4pczx2oy") (str.++ seed0_var_0xINPUT_280050 "4YRblcuhXHPmTxdIQ0W")))) (or seed0_T_2 (=> (>= (mod seed0_T_1 seed0_T_1) (+ seed0_T_1 624)) (>= (- seed0_T_1 (- 35)) (+ seed0_T_1 172))))))
(check-sat)
(exit)